slab {

  ### LAMMPS commands for initialization
  ### (These can be overridden later.)


  write_once("In Init") {
    atom_style full
  }

  write_once("In Settings") {
    pair_coeff @atom:Oal @atom:Oal 0.0000000000 0.0000000000
    pair_coeff @atom:Al3 @atom:Al3 0.0000000000 0.0000000000
    pair_coeff @atom:Cu3+1 @atom:Cu3+1 0.0000000000 0.0000000000
  }


  ### DATA sections


  write_once("Data Masses") {
    @atom:Oal 16.000000
    @atom:Al3 26.980000
    @atom:Cu3+1 63.550000
  }

  write("Data Atoms") {
    $atom:Oal_1 $mol:m1 @atom:Oal 0.000000 1.651373 3.24775 42.701982752
    $atom:Oal_2 $mol:m1 @atom:Oal 0.000000 4.030873 3.24775 46.823397648
    $atom:Oal_3 $mol:m1 @atom:Oal 0.000000 1.651373 3.24775 50.944812545
    $atom:Oal_4 $mol:m1 @atom:Oal 0.000000 4.030873 7.578083333 41.328177786
    $atom:Oal_5 $mol:m1 @atom:Oal 0.000000 1.651373 7.578083333 45.449592683
    $atom:Oal_6 $mol:m1 @atom:Oal 0.000000 4.030873 7.578083333 49.571007579
    $atom:Oal_7 $mol:m1 @atom:Oal 0.000000 1.651373 7.578083333 53.692422476
    $atom:Oal_8 $mol:m1 @atom:Oal 0.000000 1.651373 11.908416667 39.954372821
    $atom:Oal_9 $mol:m1 @atom:Oal 0.000000 4.030873 11.908416667 44.075787717
    $atom:Oal_10 $mol:m1 @atom:Oal 0.000000 1.651373 11.908416667 48.197202614
    $atom:Oal_11 $mol:m1 @atom:Oal 0.000000 4.030873 11.908416667 52.31861751
    $atom:Oal_12 $mol:m1 @atom:Oal 0.000000 3.835754 3.24775 41.440829793
    $atom:Oal_13 $mol:m1 @atom:Oal 0.000000 1.456254 3.24775 45.56224469
    $atom:Oal_14 $mol:m1 @atom:Oal 0.000000 3.835754 3.24775 49.683659586
    $atom:Oal_15 $mol:m1 @atom:Oal 0.000000 1.456254 3.24775 53.805074483
    $atom:Oal_16 $mol:m1 @atom:Oal 0.000000 1.456254 7.578083333 40.067024828
    $atom:Oal_17 $mol:m1 @atom:Oal 0.000000 3.835754 7.578083333 44.188439724
    $atom:Oal_18 $mol:m1 @atom:Oal 0.000000 1.456254 7.578083333 48.309854621
    $atom:Oal_19 $mol:m1 @atom:Oal 0.000000 3.835754 7.578083333 52.431269518
    $atom:Oal_20 $mol:m1 @atom:Oal 0.000000 1.456254 11.908416667 42.814634759
    $atom:Oal_21 $mol:m1 @atom:Oal 0.000000 3.835754 11.908416667 46.936049655
    $atom:Oal_22 $mol:m1 @atom:Oal 0.000000 1.456254 11.908416667 51.057464552
    $atom:Oal_23 $mol:m1 @atom:Oal 0.000000 1.651373 3.24775 40.179676835
    $atom:Oal_24 $mol:m1 @atom:Oal 0.000000 4.030873 3.24775 44.301091731
    $atom:Oal_25 $mol:m1 @atom:Oal 0.000000 1.651373 3.24775 48.422506628
    $atom:Oal_26 $mol:m1 @atom:Oal 0.000000 4.030873 3.24775 52.543921525
    $atom:Oal_27 $mol:m1 @atom:Oal 0.000000 1.651373 7.578083333 42.927286766
    $atom:Oal_28 $mol:m1 @atom:Oal 0.000000 4.030873 7.578083333 47.048701663
    $atom:Oal_29 $mol:m1 @atom:Oal 0.000000 1.651373 7.578083333 51.170116559
    $atom:Oal_30 $mol:m1 @atom:Oal 0.000000 4.030873 11.908416667 41.5534818
    $atom:Oal_31 $mol:m1 @atom:Oal 0.000000 1.651373 11.908416667 45.674896697
    $atom:Oal_32 $mol:m1 @atom:Oal 0.000000 4.030873 11.908416667 49.796311594
    $atom:Oal_33 $mol:m1 @atom:Oal 0.000000 3.107627 9.74325 40.179676835
    $atom:Oal_34 $mol:m1 @atom:Oal 0.000000 0.728127 9.74325 44.301091731
    $atom:Oal_35 $mol:m1 @atom:Oal 0.000000 3.107627 9.74325 48.422506628
    $atom:Oal_36 $mol:m1 @atom:Oal 0.000000 0.728127 9.74325 52.543921525
    $atom:Oal_37 $mol:m1 @atom:Oal 0.000000 3.107627 1.082583333 42.927286766
    $atom:Oal_38 $mol:m1 @atom:Oal 0.000000 0.728127 1.082583333 47.048701663
    $atom:Oal_39 $mol:m1 @atom:Oal 0.000000 3.107627 1.082583333 51.170116559
    $atom:Oal_40 $mol:m1 @atom:Oal 0.000000 0.728127 5.412916667 41.5534818
    $atom:Oal_41 $mol:m1 @atom:Oal 0.000000 3.107627 5.412916667 45.674896697
    $atom:Oal_42 $mol:m1 @atom:Oal 0.000000 0.728127 5.412916667 49.796311594
    $atom:Oal_43 $mol:m1 @atom:Oal 0.000000 0.923246 9.74325 41.440829793
    $atom:Oal_44 $mol:m1 @atom:Oal 0.000000 3.302746 9.74325 45.56224469
    $atom:Oal_45 $mol:m1 @atom:Oal 0.000000 0.923246 9.74325 49.683659586
    $atom:Oal_46 $mol:m1 @atom:Oal 0.000000 3.302746 9.74325 53.805074483
    $atom:Oal_47 $mol:m1 @atom:Oal 0.000000 3.302746 1.082583333 40.067024828
    $atom:Oal_48 $mol:m1 @atom:Oal 0.000000 0.923246 1.082583333 44.188439724
    $atom:Oal_49 $mol:m1 @atom:Oal 0.000000 3.302746 1.082583333 48.309854621
    $atom:Oal_50 $mol:m1 @atom:Oal 0.000000 0.923246 1.082583333 52.431269518
    $atom:Oal_51 $mol:m1 @atom:Oal 0.000000 3.302746 5.412916667 42.814634759
    $atom:Oal_52 $mol:m1 @atom:Oal 0.000000 0.923246 5.412916667 46.936049655
    $atom:Oal_53 $mol:m1 @atom:Oal 0.000000 3.302746 5.412916667 51.057464552
    $atom:Oal_54 $mol:m1 @atom:Oal 0.000000 3.107627 9.74325 42.701982752
    $atom:Oal_55 $mol:m1 @atom:Oal 0.000000 0.728127 9.74325 46.823397648
    $atom:Oal_56 $mol:m1 @atom:Oal 0.000000 3.107627 9.74325 50.944812545
    $atom:Oal_57 $mol:m1 @atom:Oal 0.000000 0.728127 1.082583333 41.328177786
    $atom:Oal_58 $mol:m1 @atom:Oal 0.000000 3.107627 1.082583333 45.449592683
    $atom:Oal_59 $mol:m1 @atom:Oal 0.000000 0.728127 1.082583333 49.571007579
    $atom:Oal_60 $mol:m1 @atom:Oal 0.000000 3.107627 1.082583333 53.692422476
    $atom:Oal_61 $mol:m1 @atom:Oal 0.000000 3.107627 5.412916667 39.954372821
    $atom:Oal_62 $mol:m1 @atom:Oal 0.000000 0.728127 5.412916667 44.075787717
    $atom:Oal_63 $mol:m1 @atom:Oal 0.000000 3.107627 5.412916667 48.197202614
    $atom:Oal_64 $mol:m1 @atom:Oal 0.000000 0.728127 5.412916667 52.31861751
    $atom:Al3_1 $mol:m1 @atom:Al3 0.000000 2.3795 4.572832 41.440829793
    $atom:Al3_2 $mol:m1 @atom:Al3 0.000000 0.0 4.572832 45.56224469
    $atom:Al3_3 $mol:m1 @atom:Al3 0.000000 2.3795 4.572832 49.683659586
    $atom:Al3_4 $mol:m1 @atom:Al3 0.000000 0.0 4.572832 53.805074483
    $atom:Al3_5 $mol:m1 @atom:Al3 0.000000 0.0 8.903165333 40.067024828
    $atom:Al3_6 $mol:m1 @atom:Al3 0.000000 2.3795 8.903165333 44.188439724
    $atom:Al3_7 $mol:m1 @atom:Al3 0.000000 0.0 8.903165333 48.309854621
    $atom:Al3_8 $mol:m1 @atom:Al3 0.000000 2.3795 8.903165333 52.431269518
    $atom:Al3_9 $mol:m1 @atom:Al3 0.000000 0.0 0.242498667 42.814634759
    $atom:Al3_10 $mol:m1 @atom:Al3 0.000000 2.3795 0.242498667 46.936049655
    $atom:Al3_11 $mol:m1 @atom:Al3 0.000000 0.0 0.242498667 51.057464552
    $atom:Al3_12 $mol:m1 @atom:Al3 0.000000 2.3795 1.922668 41.440829793
    $atom:Al3_13 $mol:m1 @atom:Al3 0.000000 0.0 1.922668 45.56224469
    $atom:Al3_14 $mol:m1 @atom:Al3 0.000000 2.3795 1.922668 49.683659586
    $atom:Al3_15 $mol:m1 @atom:Al3 0.000000 0.0 1.922668 53.805074483
    $atom:Al3_16 $mol:m1 @atom:Al3 0.000000 0.0 6.253001333 40.067024828
    $atom:Al3_17 $mol:m1 @atom:Al3 0.000000 2.3795 6.253001333 44.188439724
    $atom:Al3_18 $mol:m1 @atom:Al3 0.000000 0.0 6.253001333 48.309854621
    $atom:Al3_19 $mol:m1 @atom:Al3 0.000000 2.3795 6.253001333 52.431269518
    $atom:Al3_20 $mol:m1 @atom:Al3 0.000000 0.0 10.583334667 42.814634759
    $atom:Al3_21 $mol:m1 @atom:Al3 0.000000 2.3795 10.583334667 46.936049655
    $atom:Al3_22 $mol:m1 @atom:Al3 0.000000 0.0 10.583334667 51.057464552
    $atom:Al3_23 $mol:m1 @atom:Al3 0.000000 2.3795 8.418168 41.440829793
    $atom:Al3_24 $mol:m1 @atom:Al3 0.000000 0.0 8.418168 45.56224469
    $atom:Al3_25 $mol:m1 @atom:Al3 0.000000 2.3795 8.418168 49.683659586
    $atom:Al3_26 $mol:m1 @atom:Al3 0.000000 0.0 8.418168 53.805074483
    $atom:Al3_27 $mol:m1 @atom:Al3 0.000000 0.0 12.748501333 40.067024828
    $atom:Al3_28 $mol:m1 @atom:Al3 0.000000 2.3795 12.748501333 44.188439724
    $atom:Al3_29 $mol:m1 @atom:Al3 0.000000 0.0 12.748501333 48.309854621
    $atom:Al3_30 $mol:m1 @atom:Al3 0.000000 2.3795 12.748501333 52.431269518
    $atom:Al3_31 $mol:m1 @atom:Al3 0.000000 0.0 4.087834667 42.814634759
    $atom:Al3_32 $mol:m1 @atom:Al3 0.000000 2.3795 4.087834667 46.936049655
    $atom:Al3_33 $mol:m1 @atom:Al3 0.000000 0.0 4.087834667 51.057464552
    $atom:Al3_34 $mol:m1 @atom:Al3 0.000000 2.3795 11.068332 41.440829793
    $atom:Al3_35 $mol:m1 @atom:Al3 0.000000 0.0 11.068332 45.56224469
    $atom:Al3_36 $mol:m1 @atom:Al3 0.000000 2.3795 11.068332 49.683659586
    $atom:Al3_37 $mol:m1 @atom:Al3 0.000000 0.0 11.068332 53.805074483
    $atom:Al3_38 $mol:m1 @atom:Al3 0.000000 0.0 2.407665333 40.067024828
    $atom:Al3_39 $mol:m1 @atom:Al3 0.000000 2.3795 2.407665333 44.188439724
    $atom:Al3_40 $mol:m1 @atom:Al3 0.000000 0.0 2.407665333 48.309854621
    $atom:Al3_41 $mol:m1 @atom:Al3 0.000000 2.3795 2.407665333 52.431269518
    $atom:Al3_42 $mol:m1 @atom:Al3 0.000000 0.0 6.737998667 42.814634759
    $atom:Al3_43 $mol:m1 @atom:Al3 0.000000 2.3795 6.737998667 46.936049655
    $atom:Al3_44 $mol:m1 @atom:Al3 0.000000 0.0 6.737998667 51.057464552
    $atom:Oal_65 $mol:m1 @atom:Oal 0.000000 6.410373 3.24775 42.701982752
    $atom:Oal_66 $mol:m1 @atom:Oal 0.000000 8.789873 3.24775 46.823397648
    $atom:Oal_67 $mol:m1 @atom:Oal 0.000000 6.410373 3.24775 50.944812545
    $atom:Oal_68 $mol:m1 @atom:Oal 0.000000 8.789873 7.578083333 41.328177786
    $atom:Oal_69 $mol:m1 @atom:Oal 0.000000 6.410373 7.578083333 45.449592683
    $atom:Oal_70 $mol:m1 @atom:Oal 0.000000 8.789873 7.578083333 49.571007579
    $atom:Oal_71 $mol:m1 @atom:Oal 0.000000 6.410373 7.578083333 53.692422476
    $atom:Oal_72 $mol:m1 @atom:Oal 0.000000 6.410373 11.908416667 39.954372821
    $atom:Oal_73 $mol:m1 @atom:Oal 0.000000 8.789873 11.908416667 44.075787717
    $atom:Oal_74 $mol:m1 @atom:Oal 0.000000 6.410373 11.908416667 48.197202614
    $atom:Oal_75 $mol:m1 @atom:Oal 0.000000 8.789873 11.908416667 52.31861751
    $atom:Oal_76 $mol:m1 @atom:Oal 0.000000 8.594754 3.24775 41.440829793
    $atom:Oal_77 $mol:m1 @atom:Oal 0.000000 6.215254 3.24775 45.56224469
    $atom:Oal_78 $mol:m1 @atom:Oal 0.000000 8.594754 3.24775 49.683659586
    $atom:Oal_79 $mol:m1 @atom:Oal 0.000000 6.215254 3.24775 53.805074483
    $atom:Oal_80 $mol:m1 @atom:Oal 0.000000 6.215254 7.578083333 40.067024828
    $atom:Oal_81 $mol:m1 @atom:Oal 0.000000 8.594754 7.578083333 44.188439724
    $atom:Oal_82 $mol:m1 @atom:Oal 0.000000 6.215254 7.578083333 48.309854621
    $atom:Oal_83 $mol:m1 @atom:Oal 0.000000 8.594754 7.578083333 52.431269518
    $atom:Oal_84 $mol:m1 @atom:Oal 0.000000 6.215254 11.908416667 42.814634759
    $atom:Oal_85 $mol:m1 @atom:Oal 0.000000 8.594754 11.908416667 46.936049655
    $atom:Oal_86 $mol:m1 @atom:Oal 0.000000 6.215254 11.908416667 51.057464552
    $atom:Oal_87 $mol:m1 @atom:Oal 0.000000 6.410373 3.24775 40.179676835
    $atom:Oal_88 $mol:m1 @atom:Oal 0.000000 8.789873 3.24775 44.301091731
    $atom:Oal_89 $mol:m1 @atom:Oal 0.000000 6.410373 3.24775 48.422506628
    $atom:Oal_90 $mol:m1 @atom:Oal 0.000000 8.789873 3.24775 52.543921525
    $atom:Oal_91 $mol:m1 @atom:Oal 0.000000 6.410373 7.578083333 42.927286766
    $atom:Oal_92 $mol:m1 @atom:Oal 0.000000 8.789873 7.578083333 47.048701663
    $atom:Oal_93 $mol:m1 @atom:Oal 0.000000 6.410373 7.578083333 51.170116559
    $atom:Oal_94 $mol:m1 @atom:Oal 0.000000 8.789873 11.908416667 41.5534818
    $atom:Oal_95 $mol:m1 @atom:Oal 0.000000 6.410373 11.908416667 45.674896697
    $atom:Oal_96 $mol:m1 @atom:Oal 0.000000 8.789873 11.908416667 49.796311594
    $atom:Oal_97 $mol:m1 @atom:Oal 0.000000 7.866627 9.74325 40.179676835
    $atom:Oal_98 $mol:m1 @atom:Oal 0.000000 5.487127 9.74325 44.301091731
    $atom:Oal_99 $mol:m1 @atom:Oal 0.000000 7.866627 9.74325 48.422506628
    $atom:Oal_100 $mol:m1 @atom:Oal 0.000000 5.487127 9.74325 52.543921525
    $atom:Oal_101 $mol:m1 @atom:Oal 0.000000 7.866627 1.082583333 42.927286766
    $atom:Oal_102 $mol:m1 @atom:Oal 0.000000 5.487127 1.082583333 47.048701663
    $atom:Oal_103 $mol:m1 @atom:Oal 0.000000 7.866627 1.082583333 51.170116559
    $atom:Oal_104 $mol:m1 @atom:Oal 0.000000 5.487127 5.412916667 41.5534818
    $atom:Oal_105 $mol:m1 @atom:Oal 0.000000 7.866627 5.412916667 45.674896697
    $atom:Oal_106 $mol:m1 @atom:Oal 0.000000 5.487127 5.412916667 49.796311594
    $atom:Oal_107 $mol:m1 @atom:Oal 0.000000 5.682246 9.74325 41.440829793
    $atom:Oal_108 $mol:m1 @atom:Oal 0.000000 8.061746 9.74325 45.56224469
    $atom:Oal_109 $mol:m1 @atom:Oal 0.000000 5.682246 9.74325 49.683659586
    $atom:Oal_110 $mol:m1 @atom:Oal 0.000000 8.061746 9.74325 53.805074483
    $atom:Oal_111 $mol:m1 @atom:Oal 0.000000 8.061746 1.082583333 40.067024828
    $atom:Oal_112 $mol:m1 @atom:Oal 0.000000 5.682246 1.082583333 44.188439724
    $atom:Oal_113 $mol:m1 @atom:Oal 0.000000 8.061746 1.082583333 48.309854621
    $atom:Oal_114 $mol:m1 @atom:Oal 0.000000 5.682246 1.082583333 52.431269518
    $atom:Oal_115 $mol:m1 @atom:Oal 0.000000 8.061746 5.412916667 42.814634759
    $atom:Oal_116 $mol:m1 @atom:Oal 0.000000 5.682246 5.412916667 46.936049655
    $atom:Oal_117 $mol:m1 @atom:Oal 0.000000 8.061746 5.412916667 51.057464552
    $atom:Oal_118 $mol:m1 @atom:Oal 0.000000 7.866627 9.74325 42.701982752
    $atom:Oal_119 $mol:m1 @atom:Oal 0.000000 5.487127 9.74325 46.823397648
    $atom:Oal_120 $mol:m1 @atom:Oal 0.000000 7.866627 9.74325 50.944812545
    $atom:Oal_121 $mol:m1 @atom:Oal 0.000000 5.487127 1.082583333 41.328177786
    $atom:Oal_122 $mol:m1 @atom:Oal 0.000000 7.866627 1.082583333 45.449592683
    $atom:Oal_123 $mol:m1 @atom:Oal 0.000000 5.487127 1.082583333 49.571007579
    $atom:Oal_124 $mol:m1 @atom:Oal 0.000000 7.866627 1.082583333 53.692422476
    $atom:Oal_125 $mol:m1 @atom:Oal 0.000000 7.866627 5.412916667 39.954372821
    $atom:Oal_126 $mol:m1 @atom:Oal 0.000000 5.487127 5.412916667 44.075787717
    $atom:Oal_127 $mol:m1 @atom:Oal 0.000000 7.866627 5.412916667 48.197202614
    $atom:Oal_128 $mol:m1 @atom:Oal 0.000000 5.487127 5.412916667 52.31861751
    $atom:Al3_45 $mol:m1 @atom:Al3 0.000000 7.1385 4.572832 41.440829793
    $atom:Al3_46 $mol:m1 @atom:Al3 0.000000 4.759 4.572832 45.56224469
    $atom:Al3_47 $mol:m1 @atom:Al3 0.000000 7.1385 4.572832 49.683659586
    $atom:Al3_48 $mol:m1 @atom:Al3 0.000000 4.759 4.572832 53.805074483
    $atom:Al3_49 $mol:m1 @atom:Al3 0.000000 4.759 8.903165333 40.067024828
    $atom:Al3_50 $mol:m1 @atom:Al3 0.000000 7.1385 8.903165333 44.188439724
    $atom:Al3_51 $mol:m1 @atom:Al3 0.000000 4.759 8.903165333 48.309854621
    $atom:Al3_52 $mol:m1 @atom:Al3 0.000000 7.1385 8.903165333 52.431269518
    $atom:Al3_53 $mol:m1 @atom:Al3 0.000000 4.759 0.242498667 42.814634759
    $atom:Al3_54 $mol:m1 @atom:Al3 0.000000 7.1385 0.242498667 46.936049655
    $atom:Al3_55 $mol:m1 @atom:Al3 0.000000 4.759 0.242498667 51.057464552
    $atom:Al3_56 $mol:m1 @atom:Al3 0.000000 7.1385 1.922668 41.440829793
    $atom:Al3_57 $mol:m1 @atom:Al3 0.000000 4.759 1.922668 45.56224469
    $atom:Al3_58 $mol:m1 @atom:Al3 0.000000 7.1385 1.922668 49.683659586
    $atom:Al3_59 $mol:m1 @atom:Al3 0.000000 4.759 1.922668 53.805074483
    $atom:Al3_60 $mol:m1 @atom:Al3 0.000000 4.759 6.253001333 40.067024828
    $atom:Al3_61 $mol:m1 @atom:Al3 0.000000 7.1385 6.253001333 44.188439724
    $atom:Al3_62 $mol:m1 @atom:Al3 0.000000 4.759 6.253001333 48.309854621
    $atom:Al3_63 $mol:m1 @atom:Al3 0.000000 7.1385 6.253001333 52.431269518
    $atom:Al3_64 $mol:m1 @atom:Al3 0.000000 4.759 10.583334667 42.814634759
    $atom:Al3_65 $mol:m1 @atom:Al3 0.000000 7.1385 10.583334667 46.936049655
    $atom:Al3_66 $mol:m1 @atom:Al3 0.000000 4.759 10.583334667 51.057464552
    $atom:Al3_67 $mol:m1 @atom:Al3 0.000000 7.1385 8.418168 41.440829793
    $atom:Al3_68 $mol:m1 @atom:Al3 0.000000 4.759 8.418168 45.56224469
    $atom:Al3_69 $mol:m1 @atom:Al3 0.000000 7.1385 8.418168 49.683659586
    $atom:Al3_70 $mol:m1 @atom:Al3 0.000000 4.759 8.418168 53.805074483
    $atom:Al3_71 $mol:m1 @atom:Al3 0.000000 4.759 12.748501333 40.067024828
    $atom:Al3_72 $mol:m1 @atom:Al3 0.000000 7.1385 12.748501333 44.188439724
    $atom:Al3_73 $mol:m1 @atom:Al3 0.000000 4.759 12.748501333 48.309854621
    $atom:Al3_74 $mol:m1 @atom:Al3 0.000000 7.1385 12.748501333 52.431269518
    $atom:Al3_75 $mol:m1 @atom:Al3 0.000000 4.759 4.087834667 42.814634759
    $atom:Al3_76 $mol:m1 @atom:Al3 0.000000 7.1385 4.087834667 46.936049655
    $atom:Al3_77 $mol:m1 @atom:Al3 0.000000 4.759 4.087834667 51.057464552
    $atom:Al3_78 $mol:m1 @atom:Al3 0.000000 7.1385 11.068332 41.440829793
    $atom:Al3_79 $mol:m1 @atom:Al3 0.000000 4.759 11.068332 45.56224469
    $atom:Al3_80 $mol:m1 @atom:Al3 0.000000 7.1385 11.068332 49.683659586
    $atom:Al3_81 $mol:m1 @atom:Al3 0.000000 4.759 11.068332 53.805074483
    $atom:Al3_82 $mol:m1 @atom:Al3 0.000000 4.759 2.407665333 40.067024828
    $atom:Al3_83 $mol:m1 @atom:Al3 0.000000 7.1385 2.407665333 44.188439724
    $atom:Al3_84 $mol:m1 @atom:Al3 0.000000 4.759 2.407665333 48.309854621
    $atom:Al3_85 $mol:m1 @atom:Al3 0.000000 7.1385 2.407665333 52.431269518
    $atom:Al3_86 $mol:m1 @atom:Al3 0.000000 4.759 6.737998667 42.814634759
    $atom:Al3_87 $mol:m1 @atom:Al3 0.000000 7.1385 6.737998667 46.936049655
    $atom:Al3_88 $mol:m1 @atom:Al3 0.000000 4.759 6.737998667 51.057464552
    $atom:Oal_129 $mol:m1 @atom:Oal 0.000000 11.169373 3.24775 42.701982752
    $atom:Oal_130 $mol:m1 @atom:Oal 0.000000 13.548873 3.24775 46.823397648
    $atom:Oal_131 $mol:m1 @atom:Oal 0.000000 11.169373 3.24775 50.944812545
    $atom:Oal_132 $mol:m1 @atom:Oal 0.000000 13.548873 7.578083333 41.328177786
    $atom:Oal_133 $mol:m1 @atom:Oal 0.000000 11.169373 7.578083333 45.449592683
    $atom:Oal_134 $mol:m1 @atom:Oal 0.000000 13.548873 7.578083333 49.571007579
    $atom:Oal_135 $mol:m1 @atom:Oal 0.000000 11.169373 7.578083333 53.692422476
    $atom:Oal_136 $mol:m1 @atom:Oal 0.000000 11.169373 11.908416667 39.954372821
    $atom:Oal_137 $mol:m1 @atom:Oal 0.000000 13.548873 11.908416667 44.075787717
    $atom:Oal_138 $mol:m1 @atom:Oal 0.000000 11.169373 11.908416667 48.197202614
    $atom:Oal_139 $mol:m1 @atom:Oal 0.000000 13.548873 11.908416667 52.31861751
    $atom:Oal_140 $mol:m1 @atom:Oal 0.000000 13.353754 3.24775 41.440829793
    $atom:Oal_141 $mol:m1 @atom:Oal 0.000000 10.974254 3.24775 45.56224469
    $atom:Oal_142 $mol:m1 @atom:Oal 0.000000 13.353754 3.24775 49.683659586
    $atom:Oal_143 $mol:m1 @atom:Oal 0.000000 10.974254 3.24775 53.805074483
    $atom:Oal_144 $mol:m1 @atom:Oal 0.000000 10.974254 7.578083333 40.067024828
    $atom:Oal_145 $mol:m1 @atom:Oal 0.000000 13.353754 7.578083333 44.188439724
    $atom:Oal_146 $mol:m1 @atom:Oal 0.000000 10.974254 7.578083333 48.309854621
    $atom:Oal_147 $mol:m1 @atom:Oal 0.000000 13.353754 7.578083333 52.431269518
    $atom:Oal_148 $mol:m1 @atom:Oal 0.000000 10.974254 11.908416667 42.814634759
    $atom:Oal_149 $mol:m1 @atom:Oal 0.000000 13.353754 11.908416667 46.936049655
    $atom:Oal_150 $mol:m1 @atom:Oal 0.000000 10.974254 11.908416667 51.057464552
    $atom:Oal_151 $mol:m1 @atom:Oal 0.000000 11.169373 3.24775 40.179676835
    $atom:Oal_152 $mol:m1 @atom:Oal 0.000000 13.548873 3.24775 44.301091731
    $atom:Oal_153 $mol:m1 @atom:Oal 0.000000 11.169373 3.24775 48.422506628
    $atom:Oal_154 $mol:m1 @atom:Oal 0.000000 13.548873 3.24775 52.543921525
    $atom:Oal_155 $mol:m1 @atom:Oal 0.000000 11.169373 7.578083333 42.927286766
    $atom:Oal_156 $mol:m1 @atom:Oal 0.000000 13.548873 7.578083333 47.048701663
    $atom:Oal_157 $mol:m1 @atom:Oal 0.000000 11.169373 7.578083333 51.170116559
    $atom:Oal_158 $mol:m1 @atom:Oal 0.000000 13.548873 11.908416667 41.5534818
    $atom:Oal_159 $mol:m1 @atom:Oal 0.000000 11.169373 11.908416667 45.674896697
    $atom:Oal_160 $mol:m1 @atom:Oal 0.000000 13.548873 11.908416667 49.796311594
    $atom:Oal_161 $mol:m1 @atom:Oal 0.000000 12.625627 9.74325 40.179676835
    $atom:Oal_162 $mol:m1 @atom:Oal 0.000000 10.246127 9.74325 44.301091731
    $atom:Oal_163 $mol:m1 @atom:Oal 0.000000 12.625627 9.74325 48.422506628
    $atom:Oal_164 $mol:m1 @atom:Oal 0.000000 10.246127 9.74325 52.543921525
    $atom:Oal_165 $mol:m1 @atom:Oal 0.000000 12.625627 1.082583333 42.927286766
    $atom:Oal_166 $mol:m1 @atom:Oal 0.000000 10.246127 1.082583333 47.048701663
    $atom:Oal_167 $mol:m1 @atom:Oal 0.000000 12.625627 1.082583333 51.170116559
    $atom:Oal_168 $mol:m1 @atom:Oal 0.000000 10.246127 5.412916667 41.5534818
    $atom:Oal_169 $mol:m1 @atom:Oal 0.000000 12.625627 5.412916667 45.674896697
    $atom:Oal_170 $mol:m1 @atom:Oal 0.000000 10.246127 5.412916667 49.796311594
    $atom:Oal_171 $mol:m1 @atom:Oal 0.000000 10.441246 9.74325 41.440829793
    $atom:Oal_172 $mol:m1 @atom:Oal 0.000000 12.820746 9.74325 45.56224469
    $atom:Oal_173 $mol:m1 @atom:Oal 0.000000 10.441246 9.74325 49.683659586
    $atom:Oal_174 $mol:m1 @atom:Oal 0.000000 12.820746 9.74325 53.805074483
    $atom:Oal_175 $mol:m1 @atom:Oal 0.000000 12.820746 1.082583333 40.067024828
    $atom:Oal_176 $mol:m1 @atom:Oal 0.000000 10.441246 1.082583333 44.188439724
    $atom:Oal_177 $mol:m1 @atom:Oal 0.000000 12.820746 1.082583333 48.309854621
    $atom:Oal_178 $mol:m1 @atom:Oal 0.000000 10.441246 1.082583333 52.431269518
    $atom:Oal_179 $mol:m1 @atom:Oal 0.000000 12.820746 5.412916667 42.814634759
    $atom:Oal_180 $mol:m1 @atom:Oal 0.000000 10.441246 5.412916667 46.936049655
    $atom:Oal_181 $mol:m1 @atom:Oal 0.000000 12.820746 5.412916667 51.057464552
    $atom:Oal_182 $mol:m1 @atom:Oal 0.000000 12.625627 9.74325 42.701982752
    $atom:Oal_183 $mol:m1 @atom:Oal 0.000000 10.246127 9.74325 46.823397648
    $atom:Oal_184 $mol:m1 @atom:Oal 0.000000 12.625627 9.74325 50.944812545
    $atom:Oal_185 $mol:m1 @atom:Oal 0.000000 10.246127 1.082583333 41.328177786
    $atom:Oal_186 $mol:m1 @atom:Oal 0.000000 12.625627 1.082583333 45.449592683
    $atom:Oal_187 $mol:m1 @atom:Oal 0.000000 10.246127 1.082583333 49.571007579
    $atom:Oal_188 $mol:m1 @atom:Oal 0.000000 12.625627 1.082583333 53.692422476
    $atom:Oal_189 $mol:m1 @atom:Oal 0.000000 12.625627 5.412916667 39.954372821
    $atom:Oal_190 $mol:m1 @atom:Oal 0.000000 10.246127 5.412916667 44.075787717
    $atom:Oal_191 $mol:m1 @atom:Oal 0.000000 12.625627 5.412916667 48.197202614
    $atom:Oal_192 $mol:m1 @atom:Oal 0.000000 10.246127 5.412916667 52.31861751
    $atom:Al3_89 $mol:m1 @atom:Al3 0.000000 11.8975 4.572832 41.440829793
    $atom:Al3_90 $mol:m1 @atom:Al3 0.000000 9.518 4.572832 45.56224469
    $atom:Al3_91 $mol:m1 @atom:Al3 0.000000 11.8975 4.572832 49.683659586
    $atom:Al3_92 $mol:m1 @atom:Al3 0.000000 9.518 4.572832 53.805074483
    $atom:Al3_93 $mol:m1 @atom:Al3 0.000000 9.518 8.903165333 40.067024828
    $atom:Al3_94 $mol:m1 @atom:Al3 0.000000 11.8975 8.903165333 44.188439724
    $atom:Al3_95 $mol:m1 @atom:Al3 0.000000 9.518 8.903165333 48.309854621
    $atom:Al3_96 $mol:m1 @atom:Al3 0.000000 11.8975 8.903165333 52.431269518
    $atom:Al3_97 $mol:m1 @atom:Al3 0.000000 9.518 0.242498667 42.814634759
    $atom:Al3_98 $mol:m1 @atom:Al3 0.000000 11.8975 0.242498667 46.936049655
    $atom:Al3_99 $mol:m1 @atom:Al3 0.000000 9.518 0.242498667 51.057464552
    $atom:Al3_100 $mol:m1 @atom:Al3 0.000000 11.8975 1.922668 41.440829793
    $atom:Al3_101 $mol:m1 @atom:Al3 0.000000 9.518 1.922668 45.56224469
    $atom:Al3_102 $mol:m1 @atom:Al3 0.000000 11.8975 1.922668 49.683659586
    $atom:Al3_103 $mol:m1 @atom:Al3 0.000000 9.518 1.922668 53.805074483
    $atom:Al3_104 $mol:m1 @atom:Al3 0.000000 9.518 6.253001333 40.067024828
    $atom:Al3_105 $mol:m1 @atom:Al3 0.000000 11.8975 6.253001333 44.188439724
    $atom:Al3_106 $mol:m1 @atom:Al3 0.000000 9.518 6.253001333 48.309854621
    $atom:Al3_107 $mol:m1 @atom:Al3 0.000000 11.8975 6.253001333 52.431269518
    $atom:Al3_108 $mol:m1 @atom:Al3 0.000000 9.518 10.583334667 42.814634759
    $atom:Al3_109 $mol:m1 @atom:Al3 0.000000 11.8975 10.583334667 46.936049655
    $atom:Al3_110 $mol:m1 @atom:Al3 0.000000 9.518 10.583334667 51.057464552
    $atom:Al3_111 $mol:m1 @atom:Al3 0.000000 11.8975 8.418168 41.440829793
    $atom:Al3_112 $mol:m1 @atom:Al3 0.000000 9.518 8.418168 45.56224469
    $atom:Al3_113 $mol:m1 @atom:Al3 0.000000 11.8975 8.418168 49.683659586
    $atom:Al3_114 $mol:m1 @atom:Al3 0.000000 9.518 8.418168 53.805074483
    $atom:Al3_115 $mol:m1 @atom:Al3 0.000000 9.518 12.748501333 40.067024828
    $atom:Al3_116 $mol:m1 @atom:Al3 0.000000 11.8975 12.748501333 44.188439724
    $atom:Al3_117 $mol:m1 @atom:Al3 0.000000 9.518 12.748501333 48.309854621
    $atom:Al3_118 $mol:m1 @atom:Al3 0.000000 11.8975 12.748501333 52.431269518
    $atom:Al3_119 $mol:m1 @atom:Al3 0.000000 9.518 4.087834667 42.814634759
    $atom:Al3_120 $mol:m1 @atom:Al3 0.000000 11.8975 4.087834667 46.936049655
    $atom:Al3_121 $mol:m1 @atom:Al3 0.000000 9.518 4.087834667 51.057464552
    $atom:Al3_122 $mol:m1 @atom:Al3 0.000000 11.8975 11.068332 41.440829793
    $atom:Al3_123 $mol:m1 @atom:Al3 0.000000 9.518 11.068332 45.56224469
    $atom:Al3_124 $mol:m1 @atom:Al3 0.000000 11.8975 11.068332 49.683659586
    $atom:Al3_125 $mol:m1 @atom:Al3 0.000000 9.518 11.068332 53.805074483
    $atom:Al3_126 $mol:m1 @atom:Al3 0.000000 9.518 2.407665333 40.067024828
    $atom:Al3_127 $mol:m1 @atom:Al3 0.000000 11.8975 2.407665333 44.188439724
    $atom:Al3_128 $mol:m1 @atom:Al3 0.000000 9.518 2.407665333 48.309854621
    $atom:Al3_129 $mol:m1 @atom:Al3 0.000000 11.8975 2.407665333 52.431269518
    $atom:Al3_130 $mol:m1 @atom:Al3 0.000000 9.518 6.737998667 42.814634759
    $atom:Al3_131 $mol:m1 @atom:Al3 0.000000 11.8975 6.737998667 46.936049655
    $atom:Al3_132 $mol:m1 @atom:Al3 0.000000 9.518 6.737998667 51.057464552
    $atom:Oal_193 $mol:m1 @atom:Oal 0.000000 15.928373 3.24775 42.701982752
    $atom:Oal_194 $mol:m1 @atom:Oal 0.000000 18.307873 3.24775 46.823397648
    $atom:Oal_195 $mol:m1 @atom:Oal 0.000000 15.928373 3.24775 50.944812545
    $atom:Oal_196 $mol:m1 @atom:Oal 0.000000 18.307873 7.578083333 41.328177786
    $atom:Oal_197 $mol:m1 @atom:Oal 0.000000 15.928373 7.578083333 45.449592683
    $atom:Oal_198 $mol:m1 @atom:Oal 0.000000 18.307873 7.578083333 49.571007579
    $atom:Oal_199 $mol:m1 @atom:Oal 0.000000 15.928373 7.578083333 53.692422476
    $atom:Oal_200 $mol:m1 @atom:Oal 0.000000 15.928373 11.908416667 39.954372821
    $atom:Oal_201 $mol:m1 @atom:Oal 0.000000 18.307873 11.908416667 44.075787717
    $atom:Oal_202 $mol:m1 @atom:Oal 0.000000 15.928373 11.908416667 48.197202614
    $atom:Oal_203 $mol:m1 @atom:Oal 0.000000 18.307873 11.908416667 52.31861751
    $atom:Oal_204 $mol:m1 @atom:Oal 0.000000 18.112754 3.24775 41.440829793
    $atom:Oal_205 $mol:m1 @atom:Oal 0.000000 15.733254 3.24775 45.56224469
    $atom:Oal_206 $mol:m1 @atom:Oal 0.000000 18.112754 3.24775 49.683659586
    $atom:Oal_207 $mol:m1 @atom:Oal 0.000000 15.733254 3.24775 53.805074483
    $atom:Oal_208 $mol:m1 @atom:Oal 0.000000 15.733254 7.578083333 40.067024828
    $atom:Oal_209 $mol:m1 @atom:Oal 0.000000 18.112754 7.578083333 44.188439724
    $atom:Oal_210 $mol:m1 @atom:Oal 0.000000 15.733254 7.578083333 48.309854621
    $atom:Oal_211 $mol:m1 @atom:Oal 0.000000 18.112754 7.578083333 52.431269518
    $atom:Oal_212 $mol:m1 @atom:Oal 0.000000 15.733254 11.908416667 42.814634759
    $atom:Oal_213 $mol:m1 @atom:Oal 0.000000 18.112754 11.908416667 46.936049655
    $atom:Oal_214 $mol:m1 @atom:Oal 0.000000 15.733254 11.908416667 51.057464552
    $atom:Oal_215 $mol:m1 @atom:Oal 0.000000 15.928373 3.24775 40.179676835
    $atom:Oal_216 $mol:m1 @atom:Oal 0.000000 18.307873 3.24775 44.301091731
    $atom:Oal_217 $mol:m1 @atom:Oal 0.000000 15.928373 3.24775 48.422506628
    $atom:Oal_218 $mol:m1 @atom:Oal 0.000000 18.307873 3.24775 52.543921525
    $atom:Oal_219 $mol:m1 @atom:Oal 0.000000 15.928373 7.578083333 42.927286766
    $atom:Oal_220 $mol:m1 @atom:Oal 0.000000 18.307873 7.578083333 47.048701663
    $atom:Oal_221 $mol:m1 @atom:Oal 0.000000 15.928373 7.578083333 51.170116559
    $atom:Oal_222 $mol:m1 @atom:Oal 0.000000 18.307873 11.908416667 41.5534818
    $atom:Oal_223 $mol:m1 @atom:Oal 0.000000 15.928373 11.908416667 45.674896697
    $atom:Oal_224 $mol:m1 @atom:Oal 0.000000 18.307873 11.908416667 49.796311594
    $atom:Oal_225 $mol:m1 @atom:Oal 0.000000 17.384627 9.74325 40.179676835
    $atom:Oal_226 $mol:m1 @atom:Oal 0.000000 15.005127 9.74325 44.301091731
    $atom:Oal_227 $mol:m1 @atom:Oal 0.000000 17.384627 9.74325 48.422506628
    $atom:Oal_228 $mol:m1 @atom:Oal 0.000000 15.005127 9.74325 52.543921525
    $atom:Oal_229 $mol:m1 @atom:Oal 0.000000 17.384627 1.082583333 42.927286766
    $atom:Oal_230 $mol:m1 @atom:Oal 0.000000 15.005127 1.082583333 47.048701663
    $atom:Oal_231 $mol:m1 @atom:Oal 0.000000 17.384627 1.082583333 51.170116559
    $atom:Oal_232 $mol:m1 @atom:Oal 0.000000 15.005127 5.412916667 41.5534818
    $atom:Oal_233 $mol:m1 @atom:Oal 0.000000 17.384627 5.412916667 45.674896697
    $atom:Oal_234 $mol:m1 @atom:Oal 0.000000 15.005127 5.412916667 49.796311594
    $atom:Oal_235 $mol:m1 @atom:Oal 0.000000 15.200246 9.74325 41.440829793
    $atom:Oal_236 $mol:m1 @atom:Oal 0.000000 17.579746 9.74325 45.56224469
    $atom:Oal_237 $mol:m1 @atom:Oal 0.000000 15.200246 9.74325 49.683659586
    $atom:Oal_238 $mol:m1 @atom:Oal 0.000000 17.579746 9.74325 53.805074483
    $atom:Oal_239 $mol:m1 @atom:Oal 0.000000 17.579746 1.082583333 40.067024828
    $atom:Oal_240 $mol:m1 @atom:Oal 0.000000 15.200246 1.082583333 44.188439724
    $atom:Oal_241 $mol:m1 @atom:Oal 0.000000 17.579746 1.082583333 48.309854621
    $atom:Oal_242 $mol:m1 @atom:Oal 0.000000 15.200246 1.082583333 52.431269518
    $atom:Oal_243 $mol:m1 @atom:Oal 0.000000 17.579746 5.412916667 42.814634759
    $atom:Oal_244 $mol:m1 @atom:Oal 0.000000 15.200246 5.412916667 46.936049655
    $atom:Oal_245 $mol:m1 @atom:Oal 0.000000 17.579746 5.412916667 51.057464552
    $atom:Oal_246 $mol:m1 @atom:Oal 0.000000 17.384627 9.74325 42.701982752
    $atom:Oal_247 $mol:m1 @atom:Oal 0.000000 15.005127 9.74325 46.823397648
    $atom:Oal_248 $mol:m1 @atom:Oal 0.000000 17.384627 9.74325 50.944812545
    $atom:Oal_249 $mol:m1 @atom:Oal 0.000000 15.005127 1.082583333 41.328177786
    $atom:Oal_250 $mol:m1 @atom:Oal 0.000000 17.384627 1.082583333 45.449592683
    $atom:Oal_251 $mol:m1 @atom:Oal 0.000000 15.005127 1.082583333 49.571007579
    $atom:Oal_252 $mol:m1 @atom:Oal 0.000000 17.384627 1.082583333 53.692422476